200
1000
168
168
168
167
167
167
167
167
166
166
166
166
165
164
164
164
164
162
162
161
161
161
160
160
159
159
159
159
159
159
159
158
158
158
158
158
157
157
157
157
156
156
156
156
155
155
155
155
155
155
155
155
154
154
154
154
154
154
153
153
152
152
152
151
150
150
149
149
149
149
149
148
148
147
147
147
147
146
146
146
145
145
145
144
144
144
144
143
143
143
143
143
142
142
141
141
141
141
140
140
140
139
139
138
138
138
138
138
138
138
138
137
137
137
136
136
136
135
135
135
135
135
135
134
134
133
133
133
133
133
132
132
132
132
131
131
131
131
131
130
130
130
130
130
129
129
129
128
128
128
128
128
128
127
127
127
127
127
126
126
126
125
125
125
124
124
124
124
123
122
122
121
121
121
121
120
120
119
119
119
117
117
117
117
117
116
116
116
116
116
116
116
116
115
115
115
115
115
114
114
